\ Model idol-model
\ LP format - for model browsing. Use MPS format to capture full model detail.
\ Signature: 0xb123520587e022f5
Minimize
 
Subject To
 Lambda: __copy_x_80 + __copy_x_79 + __copy_x_78 + __copy_x_77
   + __copy_x_76 + __copy_x_75 + __copy_x_74 + __copy_x_73 + __copy_x_72
   + __copy_x_71 + __copy_x_70 + __copy_x_69 + __copy_x_68 + __copy_x_67
   + __copy_x_66 + __copy_x_65 + __copy_x_64 + __copy_x_63 + __copy_x_62
   + __copy_x_61 + __copy_x_60 + __copy_x_59 + __copy_x_58 + __copy_x_57
   + __copy_x_56 + __copy_x_55 + __copy_x_54 + __copy_x_53 + __copy_x_52
   + __copy_x_51 + __copy_x_50 + __copy_x_49 + __copy_x_48 + __copy_x_47
   + __copy_x_46 + __copy_x_45 + __copy_x_44 + __copy_x_43 + __copy_x_42
   + __copy_x_41 + __copy_x_40 + __copy_x_39 + __copy_x_38 + __copy_x_37
   + __copy_x_36 + __copy_x_35 + __copy_x_34 + __copy_x_33 + __copy_x_32
   + __copy_x_31 + __copy_x_30 + __copy_x_29 + __copy_x_28 + __copy_x_27
   + __copy_x_26 + __copy_x_25 + __copy_x_24 + __copy_x_23 + __copy_x_22
   + __copy_x_21 + __copy_x_20 + __copy_x_19 + __copy_x_18 + __copy_x_17
   + __copy_x_16 + __copy_x_15 + __copy_x_14 + __copy_x_13 + __copy_x_12
   + __copy_x_11 + __copy_x_10 + __copy_x_9 + __copy_x_8 + __copy_x_6
   + __copy_x_4 + __copy_x_3 + __copy_x_2 <= 3
 V2: y_2 + __copy_a_2 <= 1
 V3: y_3 + __copy_a_3 <= 1
 V4: y_4 + __copy_a_4 <= 1
 V6: y_6 + __copy_a_6 <= 1
 V8: y_8 + __copy_a_8 <= 1
 V9: y_9 + __copy_a_9 <= 1
 V10: y_10 + __copy_a_10 <= 1
 V11: y_11 + __copy_a_11 <= 1
 V12: y_12 + __copy_a_12 <= 1
 V13: y_13 + __copy_a_13 <= 1
 V14: y_14 + __copy_a_14 <= 1
 V15: y_15 + __copy_a_15 <= 1
 V16: y_16 + __copy_a_16 <= 1
 V17: y_17 + __copy_a_17 <= 1
 V18: y_18 + __copy_a_18 <= 1
 V19: y_19 + __copy_a_19 <= 1
 V20: y_20 + __copy_a_20 <= 1
 V21: y_21 + __copy_a_21 <= 1
 V22: y_22 + __copy_a_22 <= 1
 V23: y_23 + __copy_a_23 <= 1
 V24: y_24 + __copy_a_24 <= 1
 V25: y_25 + __copy_a_25 <= 1
 V26: y_26 + __copy_a_26 <= 1
 V27: y_27 + __copy_a_27 <= 1
 V28: y_28 + __copy_a_28 <= 1
 V29: y_29 + __copy_a_29 <= 1
 V30: y_30 + __copy_a_30 <= 1
 V31: y_31 + __copy_a_31 <= 1
 V32: y_32 + __copy_a_32 <= 1
 V33: y_33 + __copy_a_33 <= 1
 V34: y_34 + __copy_a_34 <= 1
 V35: y_35 + __copy_a_35 <= 1
 V36: y_36 + __copy_a_36 <= 1
 V37: y_37 + __copy_a_37 <= 1
 V38: y_38 + __copy_a_38 <= 1
 V39: y_39 + __copy_a_39 <= 1
 V40: y_40 + __copy_a_40 <= 1
 V41: y_41 + __copy_a_41 <= 1
 V42: y_42 + __copy_a_42 <= 1
 V43: y_43 + __copy_a_43 <= 1
 V44: y_44 + __copy_a_44 <= 1
 V45: y_45 + __copy_a_45 <= 1
 V46: y_46 + __copy_a_46 <= 1
 V47: y_47 + __copy_a_47 <= 1
 V48: y_48 + __copy_a_48 <= 1
 V49: y_49 + __copy_a_49 <= 1
 V50: y_50 + __copy_a_50 <= 1
 V51: y_51 + __copy_a_51 <= 1
 V52: y_52 + __copy_a_52 <= 1
 V53: y_53 + __copy_a_53 <= 1
 V54: y_54 + __copy_a_54 <= 1
 V55: y_55 + __copy_a_55 <= 1
 V56: y_56 + __copy_a_56 <= 1
 V57: y_57 + __copy_a_57 <= 1
 V58: y_58 + __copy_a_58 <= 1
 V59: y_59 + __copy_a_59 <= 1
 V60: y_60 + __copy_a_60 <= 1
 V61: y_61 + __copy_a_61 <= 1
 V62: y_62 + __copy_a_62 <= 1
 V63: y_63 + __copy_a_63 <= 1
 V64: y_64 + __copy_a_64 <= 1
 V65: y_65 + __copy_a_65 <= 1
 V66: y_66 + __copy_a_66 <= 1
 V67: y_67 + __copy_a_67 <= 1
 V68: y_68 + __copy_a_68 <= 1
 V69: y_69 + __copy_a_69 <= 1
 V70: y_70 + __copy_a_70 <= 1
 V71: y_71 + __copy_a_71 <= 1
 V72: y_72 + __copy_a_72 <= 1
 V73: y_73 + __copy_a_73 <= 1
 V74: y_74 + __copy_a_74 <= 1
 V75: y_75 + __copy_a_75 <= 1
 V76: y_76 + __copy_a_76 <= 1
 V77: y_77 + __copy_a_77 <= 1
 V78: y_78 + __copy_a_78 <= 1
 V79: y_79 + __copy_a_79 <= 1
 V80: y_80 + __copy_a_80 <= 1
 A3-2: - __copy_x_2 + __copy_a_2 - __copy_a_3 <= 0
 A2-3: - __copy_x_3 - __copy_a_2 + __copy_a_3 <= 0
 A10-6: - __copy_x_6 + __copy_a_6 - __copy_a_10 <= 0
 A6-10: - __copy_x_10 - __copy_a_6 + __copy_a_10 <= 0
 A11-8: - __copy_x_8 + __copy_a_8 - __copy_a_11 <= 0
 A8-11: - __copy_x_11 - __copy_a_8 + __copy_a_11 <= 0
 A13-8: - __copy_x_8 + __copy_a_8 - __copy_a_13 <= 0
 A8-13: - __copy_x_13 - __copy_a_8 + __copy_a_13 <= 0
 A14-6: - __copy_x_6 + __copy_a_6 - __copy_a_14 <= 0
 A6-14: - __copy_x_14 - __copy_a_6 + __copy_a_14 <= 0
 A16-4: - __copy_x_4 + __copy_a_4 - __copy_a_16 <= 0
 A4-16: - __copy_x_16 - __copy_a_4 + __copy_a_16 <= 0
 A17-9: - __copy_x_9 + __copy_a_9 - __copy_a_17 <= 0
 A9-17: - __copy_x_17 - __copy_a_9 + __copy_a_17 <= 0
 A18-17: - __copy_x_17 + __copy_a_17 - __copy_a_18 <= 0
 A17-18: - __copy_x_18 - __copy_a_17 + __copy_a_18 <= 0
 A20-2: - __copy_x_2 + __copy_a_2 - __copy_a_20 <= 0
 A2-20: - __copy_x_20 - __copy_a_2 + __copy_a_20 <= 0
 A21-10: - __copy_x_10 + __copy_a_10 - __copy_a_21 <= 0
 A10-21: - __copy_x_21 - __copy_a_10 + __copy_a_21 <= 0
 A22-9: - __copy_x_9 + __copy_a_9 - __copy_a_22 <= 0
 A9-22: - __copy_x_22 - __copy_a_9 + __copy_a_22 <= 0
 A23-3: - __copy_x_3 + __copy_a_3 - __copy_a_23 <= 0
 A3-23: - __copy_x_23 - __copy_a_3 + __copy_a_23 <= 0
 A24-16: - __copy_x_16 + __copy_a_16 - __copy_a_24 <= 0
 A16-24: - __copy_x_24 - __copy_a_16 + __copy_a_24 <= 0
 A25-2: - __copy_x_2 + __copy_a_2 - __copy_a_25 <= 0
 A2-25: - __copy_x_25 - __copy_a_2 + __copy_a_25 <= 0
 A26-13: - __copy_x_13 + __copy_a_13 - __copy_a_26 <= 0
 A13-26: - __copy_x_26 - __copy_a_13 + __copy_a_26 <= 0
 A27-6: - __copy_x_6 + __copy_a_6 - __copy_a_27 <= 0
 A6-27: - __copy_x_27 - __copy_a_6 + __copy_a_27 <= 0
 A28-14: - __copy_x_14 + __copy_a_14 - __copy_a_28 <= 0
 A14-28: - __copy_x_28 - __copy_a_14 + __copy_a_28 <= 0
 A30-15: - __copy_x_15 + __copy_a_15 - __copy_a_30 <= 0
 A15-30: - __copy_x_30 - __copy_a_15 + __copy_a_30 <= 0
 A31-30: - __copy_x_30 + __copy_a_30 - __copy_a_31 <= 0
 A30-31: - __copy_x_31 - __copy_a_30 + __copy_a_31 <= 0
 A32-14: - __copy_x_14 + __copy_a_14 - __copy_a_32 <= 0
 A14-32: - __copy_x_32 - __copy_a_14 + __copy_a_32 <= 0
 A33-13: - __copy_x_13 + __copy_a_13 - __copy_a_33 <= 0
 A13-33: - __copy_x_33 - __copy_a_13 + __copy_a_33 <= 0
 A34-31: - __copy_x_31 + __copy_a_31 - __copy_a_34 <= 0
 A31-34: - __copy_x_34 - __copy_a_31 + __copy_a_34 <= 0
 A35-20: - __copy_x_20 + __copy_a_20 - __copy_a_35 <= 0
 A20-35: - __copy_x_35 - __copy_a_20 + __copy_a_35 <= 0
 A38-9: - __copy_x_9 + __copy_a_9 - __copy_a_38 <= 0
 A9-38: - __copy_x_38 - __copy_a_9 + __copy_a_38 <= 0
 A39-3: - __copy_x_3 + __copy_a_3 - __copy_a_39 <= 0
 A3-39: - __copy_x_39 - __copy_a_3 + __copy_a_39 <= 0
 A40-35: - __copy_x_35 + __copy_a_35 - __copy_a_40 <= 0
 A35-40: - __copy_x_40 - __copy_a_35 + __copy_a_40 <= 0
 A41-16: - __copy_x_16 + __copy_a_16 - __copy_a_41 <= 0
 A16-41: - __copy_x_41 - __copy_a_16 + __copy_a_41 <= 0
 A42-40: - __copy_x_40 + __copy_a_40 - __copy_a_42 <= 0
 A40-42: - __copy_x_42 - __copy_a_40 + __copy_a_42 <= 0
 A43-4: - __copy_x_4 + __copy_a_4 - __copy_a_43 <= 0
 A4-43: - __copy_x_43 - __copy_a_4 + __copy_a_43 <= 0
 A44-4: - __copy_x_4 + __copy_a_4 - __copy_a_44 <= 0
 A4-44: - __copy_x_44 - __copy_a_4 + __copy_a_44 <= 0
 A45-20: - __copy_x_20 + __copy_a_20 - __copy_a_45 <= 0
 A20-45: - __copy_x_45 - __copy_a_20 + __copy_a_45 <= 0
 A46-35: - __copy_x_35 + __copy_a_35 - __copy_a_46 <= 0
 A35-46: - __copy_x_46 - __copy_a_35 + __copy_a_46 <= 0
 A47-17: - __copy_x_17 + __copy_a_17 - __copy_a_47 <= 0
 A17-47: - __copy_x_47 - __copy_a_17 + __copy_a_47 <= 0
 A49-19: - __copy_x_19 + __copy_a_19 - __copy_a_49 <= 0
 A19-49: - __copy_x_49 - __copy_a_19 + __copy_a_49 <= 0
 A50-45: - __copy_x_45 + __copy_a_45 - __copy_a_50 <= 0
 A45-50: - __copy_x_50 - __copy_a_45 + __copy_a_50 <= 0
 A51-27: - __copy_x_27 + __copy_a_27 - __copy_a_51 <= 0
 A27-51: - __copy_x_51 - __copy_a_27 + __copy_a_51 <= 0
 A52-31: - __copy_x_31 + __copy_a_31 - __copy_a_52 <= 0
 A31-52: - __copy_x_52 - __copy_a_31 + __copy_a_52 <= 0
 A53-3: - __copy_x_3 + __copy_a_3 - __copy_a_53 <= 0
 A3-53: - __copy_x_53 - __copy_a_3 + __copy_a_53 <= 0
 A54-49: - __copy_x_49 + __copy_a_49 - __copy_a_54 <= 0
 A49-54: - __copy_x_54 - __copy_a_49 + __copy_a_54 <= 0
 A55-15: - __copy_x_15 + __copy_a_15 - __copy_a_55 <= 0
 A15-55: - __copy_x_55 - __copy_a_15 + __copy_a_55 <= 0
 A56-43: - __copy_x_43 + __copy_a_43 - __copy_a_56 <= 0
 A43-56: - __copy_x_56 - __copy_a_43 + __copy_a_56 <= 0
 A57-18: - __copy_x_18 + __copy_a_18 - __copy_a_57 <= 0
 A18-57: - __copy_x_57 - __copy_a_18 + __copy_a_57 <= 0
 A58-50: - __copy_x_50 + __copy_a_50 - __copy_a_58 <= 0
 A50-58: - __copy_x_58 - __copy_a_50 + __copy_a_58 <= 0
 A59-55: - __copy_x_55 + __copy_a_55 - __copy_a_59 <= 0
 A55-59: - __copy_x_59 - __copy_a_55 + __copy_a_59 <= 0
 A60-34: - __copy_x_34 + __copy_a_34 - __copy_a_60 <= 0
 A34-60: - __copy_x_60 - __copy_a_34 + __copy_a_60 <= 0
 A61-55: - __copy_x_55 + __copy_a_55 - __copy_a_61 <= 0
 A55-61: - __copy_x_61 - __copy_a_55 + __copy_a_61 <= 0
 A62-41: - __copy_x_41 + __copy_a_41 - __copy_a_62 <= 0
 A41-62: - __copy_x_62 - __copy_a_41 + __copy_a_62 <= 0
 A63-48: - __copy_x_48 + __copy_a_48 - __copy_a_63 <= 0
 A48-63: - __copy_x_63 - __copy_a_48 + __copy_a_63 <= 0
 A64-26: - __copy_x_26 + __copy_a_26 - __copy_a_64 <= 0
 A26-64: - __copy_x_64 - __copy_a_26 + __copy_a_64 <= 0
 A65-2: - __copy_x_2 + __copy_a_2 - __copy_a_65 <= 0
 A2-65: - __copy_x_65 - __copy_a_2 + __copy_a_65 <= 0
 A66-63: - __copy_x_63 + __copy_a_63 - __copy_a_66 <= 0
 A63-66: - __copy_x_66 - __copy_a_63 + __copy_a_66 <= 0
 A67-65: - __copy_x_65 + __copy_a_65 - __copy_a_67 <= 0
 A65-67: - __copy_x_67 - __copy_a_65 + __copy_a_67 <= 0
 A68-61: - __copy_x_61 + __copy_a_61 - __copy_a_68 <= 0
 A61-68: - __copy_x_68 - __copy_a_61 + __copy_a_68 <= 0
 A69-29: - __copy_x_29 + __copy_a_29 - __copy_a_69 <= 0
 A29-69: - __copy_x_69 - __copy_a_29 + __copy_a_69 <= 0
 A70-47: - __copy_x_47 + __copy_a_47 - __copy_a_70 <= 0
 A47-70: - __copy_x_70 - __copy_a_47 + __copy_a_70 <= 0
 A71-54: - __copy_x_54 + __copy_a_54 - __copy_a_71 <= 0
 A54-71: - __copy_x_71 - __copy_a_54 + __copy_a_71 <= 0
 A72-57: - __copy_x_57 + __copy_a_57 - __copy_a_72 <= 0
 A57-72: - __copy_x_72 - __copy_a_57 + __copy_a_72 <= 0
 A73-17: - __copy_x_17 + __copy_a_17 - __copy_a_73 <= 0
 A17-73: - __copy_x_73 - __copy_a_17 + __copy_a_73 <= 0
 A74-71: - __copy_x_71 + __copy_a_71 - __copy_a_74 <= 0
 A71-74: - __copy_x_74 - __copy_a_71 + __copy_a_74 <= 0
 A75-71: - __copy_x_71 + __copy_a_71 - __copy_a_75 <= 0
 A71-75: - __copy_x_75 - __copy_a_71 + __copy_a_75 <= 0
 A76-56: - __copy_x_56 + __copy_a_56 - __copy_a_76 <= 0
 A56-76: - __copy_x_76 - __copy_a_56 + __copy_a_76 <= 0
 A77-72: - __copy_x_72 + __copy_a_72 - __copy_a_77 <= 0
 A72-77: - __copy_x_77 - __copy_a_72 + __copy_a_77 <= 0
 A78-30: - __copy_x_30 + __copy_a_30 - __copy_a_78 <= 0
 A30-78: - __copy_x_78 - __copy_a_30 + __copy_a_78 <= 0
 A79-73: - __copy_x_73 + __copy_a_73 - __copy_a_79 <= 0
 A73-79: - __copy_x_79 - __copy_a_73 + __copy_a_79 <= 0
 A80-36: - __copy_x_36 + __copy_a_36 - __copy_a_80 <= 0
 A36-80: - __copy_x_80 - __copy_a_36 + __copy_a_80 <= 0
Bounds
Binaries
 __copy_x_80 __copy_x_79 __copy_x_78 __copy_x_77 __copy_x_76 __copy_x_75
 __copy_x_74 __copy_x_73 __copy_x_72 __copy_x_71 __copy_x_70 __copy_x_69
 __copy_x_68 __copy_x_67 __copy_x_66 __copy_x_65 __copy_x_64 __copy_x_63
 __copy_x_62 __copy_x_61 __copy_x_60 __copy_x_59 __copy_x_58 __copy_x_57
 __copy_x_56 __copy_x_55 __copy_x_54 __copy_x_53 __copy_x_52 __copy_x_51
 __copy_x_50 __copy_x_49 __copy_x_48 __copy_x_47 __copy_x_46 __copy_x_45
 __copy_x_44 __copy_x_43 __copy_x_42 __copy_x_41 __copy_x_40 __copy_x_39
 __copy_x_38 __copy_x_37 __copy_x_36 __copy_x_35 __copy_x_34 __copy_x_33
 __copy_x_32 __copy_x_31 __copy_x_30 __copy_x_29 __copy_x_28 __copy_x_27
 __copy_x_26 __copy_x_25 __copy_x_24 __copy_x_23 __copy_x_22 __copy_x_21
 __copy_x_20 __copy_x_19 __copy_x_18 __copy_x_17 __copy_x_16 __copy_x_15
 __copy_x_14 __copy_x_13 __copy_x_12 __copy_x_11 __copy_x_10 __copy_x_9
 __copy_x_8 __copy_x_6 __copy_x_4 __copy_x_3 __copy_x_2 y_2 __copy_a_2 y_3
 __copy_a_3 y_4 __copy_a_4 y_6 __copy_a_6 y_8 __copy_a_8 y_9 __copy_a_9
 y_10 __copy_a_10 y_11 __copy_a_11 y_12 __copy_a_12 y_13 __copy_a_13 y_14
 __copy_a_14 y_15 __copy_a_15 y_16 __copy_a_16 y_17 __copy_a_17 y_18
 __copy_a_18 y_19 __copy_a_19 y_20 __copy_a_20 y_21 __copy_a_21 y_22
 __copy_a_22 y_23 __copy_a_23 y_24 __copy_a_24 y_25 __copy_a_25 y_26
 __copy_a_26 y_27 __copy_a_27 y_28 __copy_a_28 y_29 __copy_a_29 y_30
 __copy_a_30 y_31 __copy_a_31 y_32 __copy_a_32 y_33 __copy_a_33 y_34
 __copy_a_34 y_35 __copy_a_35 y_36 __copy_a_36 y_37 __copy_a_37 y_38
 __copy_a_38 y_39 __copy_a_39 y_40 __copy_a_40 y_41 __copy_a_41 y_42
 __copy_a_42 y_43 __copy_a_43 y_44 __copy_a_44 y_45 __copy_a_45 y_46
 __copy_a_46 y_47 __copy_a_47 y_48 __copy_a_48 y_49 __copy_a_49 y_50
 __copy_a_50 y_51 __copy_a_51 y_52 __copy_a_52 y_53 __copy_a_53 y_54
 __copy_a_54 y_55 __copy_a_55 y_56 __copy_a_56 y_57 __copy_a_57 y_58
 __copy_a_58 y_59 __copy_a_59 y_60 __copy_a_60 y_61 __copy_a_61 y_62
 __copy_a_62 y_63 __copy_a_63 y_64 __copy_a_64 y_65 __copy_a_65 y_66
 __copy_a_66 y_67 __copy_a_67 y_68 __copy_a_68 y_69 __copy_a_69 y_70
 __copy_a_70 y_71 __copy_a_71 y_72 __copy_a_72 y_73 __copy_a_73 y_74
 __copy_a_74 y_75 __copy_a_75 y_76 __copy_a_76 y_77 __copy_a_77 y_78
 __copy_a_78 y_79 __copy_a_79 y_80 __copy_a_80
End
